     Program PWSCF v.7.2 starts on 30Jul2025 at 18:44:37

     Reading input from alpha.scf.in

     Current dimensions of program PWSCF are:
     Max number of different atomic species (ntypx) = 10
     Max number of k-points (npk) =  40000
     Max angular momentum in pseudopotentials (lmaxx) =  4
     file B.pbesol-n-rrkjus_psl.1.0.0.UPF: wavefunction(s)  2S renormalized

     Subspace diagonalization in iterative solution of the eigenvalue problem:
     a serial algorithm will be used

     Using Slab Decomposition

     bravais-lattice index     =            4
     lattice parameter (alat)  =       9.0360  a.u.
     unit-cell volume          =    2382.6030 (a.u.)^3
     number of atoms/cell      =           14
     number of atomic types    =            2
     number of electrons       =       114.00
     number of Kohn-Sham states=           68
     kinetic-energy cutoff     =      60.0000  Ry
     charge density cutoff     =     240.0000  Ry
     scf convergence threshold =      1.0E-06
     mixing beta               =       0.7000
     number of iterations used =            8  plain     mixing
     Exchange-correlation= SLA  PW   PSX  PSC
                           (   1   4  10   8   0   0   0)

     celldm(1)=   9.036000  celldm(2)=   0.000000  celldm(3)=   3.729000
     celldm(4)=   0.000000  celldm(5)=   0.000000  celldm(6)=   0.000000

     crystal axes: (cart. coord. in units of alat)
               a(1) = (   1.000000   0.000000   0.000000 )
               a(2) = (  -0.500000   0.866025   0.000000 )
               a(3) = (   0.000000   0.000000   3.729000 )

     reciprocal axes: (cart. coord. in units 2 pi/alat)
               b(1) = (  1.000000  0.577350 -0.000000 )
               b(2) = (  0.000000  1.154701  0.000000 )
               b(3) = (  0.000000 -0.000000  0.268168 )

     PseudoPot. # 1 for B  read from file:
     ../../pseudo/B.pbesol-n-rrkjus_psl.1.0.0.UPF
     MD5 check sum: a3839a09b1a4e02f2a06a66adc9253fc
     Pseudo is Ultrasoft + core correction, Zval =  3.0
     Generated using &quot;atomic&quot; code by A. Dal Corso  v.6.3MaX
     Using radial grid of 1059 points,  4 beta functions with:
                l(1) =   0
                l(2) =   0
                l(3) =   1
                l(4) =   1
     Q(r) pseudized with 0 coefficients

     PseudoPot. # 2 for Re read from file:
     ../../pseudo/re_pbesol_v1.2.uspp.F.UPF
     MD5 check sum: aaf9138663fa2d46e1797bae542d0e3d
     Pseudo is Ultrasoft + core correction, Zval = 15.0
     Generated by new atomic code, or converted to UPF format
     Using radial grid of  981 points,  8 beta functions with:
                l(1) =   0
                l(2) =   0
                l(3) =   1
                l(4) =   1
                l(5) =   2
                l(6) =   2
                l(7) =   3
                l(8) =   3
     Q(r) pseudized with  8 coefficients,  rinner =    1.150   1.150   1.150
                                                       1.150   1.150   1.150
                                                       1.150

     atomic species   valence    mass     pseudopotential
        B              3.00    10.81100     B ( 1.00)
        Re            15.00   186.20700     Re( 1.00)

      6 Sym. Ops. (no inversion) found

   Cartesian axes

     site n.     atom                  positions (alat units)
         1           Re  tau(   1) = (   0.3333330   0.0000000   0.0000000  )
         2           Re  tau(   2) = (  -0.1666665   0.2886748   0.0000000  )
         3           Re  tau(   3) = (   0.3333335   0.5773506   0.0000000  )
         4           Re  tau(   4) = (   0.0000000   0.0000000   0.4598000  )
         5           Re  tau(   5) = (   0.5000005   0.2886748   0.4321867  )
         6           Re  tau(   6) = (  -0.0000005   0.5773506   0.4321867  )
         7           B   tau(   7) = (   0.3335585   0.0000000   0.8206364  )
         8           B   tau(   8) = (   0.6788599   0.0000000   0.8910164  )
         9           B   tau(   9) = (  -0.1667792   0.2888701   0.8206364  )
        10           B   tau(  10) = (   0.1605701   0.2781155   0.8910164  )
        11           B   tau(  11) = (   0.5000005   0.2886748   0.9506643  )
        12           B   tau(  12) = (  -0.3394299   0.5879099   0.8910164  )
        13           B   tau(  13) = (  -0.0000005   0.5773506   0.9506643  )
        14           B   tau(  14) = (   0.3332208   0.5771553   0.8206364  )

     number of k points=     7  Marzari-Vanderbilt smearing, width (Ry)=  0.0200
                       cart. coord. in units 2pi/alat
        k(    1) = (   0.0000000   0.0000000   0.0000000), wk =   0.0555556
        k(    2) = (   0.0000000   0.1924501   0.0000000), wk =   0.3333333
        k(    3) = (   0.0000000   0.3849002   0.0000000), wk =   0.3333333
        k(    4) = (   0.0000000  -0.5773503   0.0000000), wk =   0.1666667
        k(    5) = (   0.1666667   0.2886751   0.0000000), wk =   0.3333333
        k(    6) = (   0.1666667   0.4811252   0.0000000), wk =   0.6666667
        k(    7) = (   0.3333333   0.5773503   0.0000000), wk =   0.1111111

     Check: negative core charge=   -0.000001

     Initial potential from superposition of free atoms

     starting charge     110.9975, renormalised to     114.0000

     negative rho (up, down):  7.971E-01 0.000E+00
     Starting wfcs are  110 randomized atomic wfcs

     Self-consistent Calculation

     iteration #  1     ecut=    60.00 Ry     beta= 0.70
     Davidson diagonalization with overlap
     ethr =  1.00E-02,  avg # of iterations =  2.0

     negative rho (up, down):  7.885E-01 0.000E+00

     total energy              =   -1163.59372222 Ry
     estimated scf accuracy    <      34.32584943 Ry

[...]

     iteration # 11     ecut=    60.00 Ry     beta= 0.70
     Davidson diagonalization with overlap
     c_bands:  1 eigenvalues not converged
     ethr =  1.29E-06,  avg # of iterations = 11.6

[...]

     total energy              =   -1191.90799046 Ry
     estimated scf accuracy    <       0.00000213 Ry

     iteration # 16     ecut=    60.00 Ry     beta= 0.70
     Davidson diagonalization with overlap
     ethr =  1.86E-09,  avg # of iterations =  4.3

     negative rho (up, down):  8.017E-01 0.000E+00

     End of self-consistent calculation

          k = 0.0000 0.0000 0.0000 ( 18635 PWs)   bands (ev):

   -75.3791 -75.3062 -75.2301 -74.8637 -74.7860 -74.7860 -37.5915 -37.5032
   -37.5032 -37.4169 -37.4168 -37.3817 -37.1987 -36.7876 -36.7876 -36.7538
   -36.7538 -36.6790 -36.6647 -36.5855 -36.5855 -36.5800 -36.1713 -36.1713
   -12.0231  -7.3136  -6.8837  -6.8837  -5.1500  -5.1499  -5.1268  -3.7671
    -2.3811  -1.2755  -0.0083  -0.0082   0.3430   0.3431   0.9890   0.9891
     1.0770   1.4603   1.4603   1.5572   2.4027   2.4027   3.0963   3.3613
     3.3613   3.3626   3.3640   3.5097   3.5097   4.3075   4.3075   4.3617
     4.6293   5.0494   5.0494   5.7760   5.7760   6.4864   7.0024   7.0368
     7.0368   7.2784   7.2785   7.6666

[...]

          k = 0.3333 0.5774 0.0000 ( 18777 PWs)   bands (ev):

   -75.3365 -75.3365 -75.2428 -74.8127 -74.8117 -74.8117 -37.5601 -37.5213
   -37.5213 -37.4515 -37.4515 -37.2267 -36.9658 -36.9328 -36.9328 -36.7763
   -36.7745 -36.7745 -36.5766 -36.5531 -36.5530 -36.3255 -36.3196 -36.3196
   -10.5321 -10.5320  -8.6061  -4.3494  -4.3494  -3.8968  -2.4412  -2.4411
    -2.0806  -1.5613  -1.0786  -1.0786  -0.7563  -0.2524  -0.2524   0.0230
     0.5615   0.5616   1.0968   1.1135   1.1136   2.8328   2.8329   2.9725
     3.2129   3.2130   3.7852   3.8119   4.0530   4.0530   4.3966   4.3966
     4.9447   6.2010   6.3432   6.3432   6.4127   6.4127   6.6611   7.5180
     7.5180   7.5841   7.9346   7.9346

     the Fermi energy is     5.1122 ev

!    total energy              =   -1191.90799071 Ry
     estimated scf accuracy    <       0.00000003 Ry
     smearing contrib. (-TS)   =      -0.00201259 Ry
     internal energy E=F+TS    =   -1191.90597812 Ry

     The total energy is F=E-TS. E is the sum of the following terms:
     one-electron contribution =   -6106.60907308 Ry
     hartree contribution      =    3060.00653377 Ry
     xc contribution           =    -337.28852551 Ry
     ewald contribution        =    2191.98508669 Ry

     convergence has been achieved in  16 iterations

     Writing all to output data dir ../../outdir/borophene.save/

     General routines

     Parallel routines

   This run was terminated on:  19:14:46  30Jul2025

   JOB DONE.