     Program PWSCF v.7.2 starts on 30Jul2025 at 10:15:24

     Reading input from alpha.scf.in

     Current dimensions of program PWSCF are:
     Max number of different atomic species (ntypx) = 10
     Max number of k-points (npk) =  40000
     Max angular momentum in pseudopotentials (lmaxx) =  4
     file B.pbesol-n-rrkjus_psl.1.0.0.UPF: wavefunction(s)  2S renormalized

     Subspace diagonalization in iterative solution of the eigenvalue problem:
     a serial algorithm will be used

     Using Slab Decomposition

     bravais-lattice index     =            4
     lattice parameter (alat)  =       9.0360  a.u.
     unit-cell volume          =    2382.6030 (a.u.)^3
     number of atoms/cell      =           14
     number of atomic types    =            2
     number of electrons       =       114.00
     number of Kohn-Sham states=           68
     kinetic-energy cutoff     =      50.0000  Ry
     charge density cutoff     =     200.0000  Ry
     scf convergence threshold =      1.0E-06
     mixing beta               =       0.7000
     number of iterations used =            8  plain     mixing
     Exchange-correlation= SLA  PW   PSX  PSC
                           (   1   4  10   8   0   0   0)

     celldm(1)=   9.036000  celldm(2)=   0.000000  celldm(3)=   3.729000
     celldm(4)=   0.000000  celldm(5)=   0.000000  celldm(6)=   0.000000

     crystal axes: (cart. coord. in units of alat)
               a(1) = (   1.000000   0.000000   0.000000 )
               a(2) = (  -0.500000   0.866025   0.000000 )
               a(3) = (   0.000000   0.000000   3.729000 )

     reciprocal axes: (cart. coord. in units 2 pi/alat)
               b(1) = (  1.000000  0.577350 -0.000000 )
               b(2) = (  0.000000  1.154701  0.000000 )
               b(3) = (  0.000000 -0.000000  0.268168 )

     PseudoPot. # 1 for B  read from file:
     ../pseudo/B.pbesol-n-rrkjus_psl.1.0.0.UPF
     MD5 check sum: a3839a09b1a4e02f2a06a66adc9253fc
     Pseudo is Ultrasoft + core correction, Zval =  3.0
     Generated using &quot;atomic&quot; code by A. Dal Corso  v.6.3MaX
     Using radial grid of 1059 points,  4 beta functions with:
                l(1) =   0
                l(2) =   0
                l(3) =   1
                l(4) =   1
     Q(r) pseudized with 0 coefficients

     PseudoPot. # 2 for Re read from file:
     ../pseudo/re_pbesol_v1.2.uspp.F.UPF
     MD5 check sum: aaf9138663fa2d46e1797bae542d0e3d
     Pseudo is Ultrasoft + core correction, Zval = 15.0
     Generated by new atomic code, or converted to UPF format
     Using radial grid of  981 points,  8 beta functions with:
                l(1) =   0
                l(2) =   0
                l(3) =   1
                l(4) =   1
                l(5) =   2
                l(6) =   2
                l(7) =   3
                l(8) =   3
     Q(r) pseudized with  8 coefficients,  rinner =    1.150   1.150   1.150
                                                       1.150   1.150   1.150
                                                       1.150

     atomic species   valence    mass     pseudopotential
        B              3.00    10.81100     B ( 1.00)
        Re            15.00   186.20700     Re( 1.00)

      6 Sym. Ops. (no inversion) found

   Cartesian axes

     site n.     atom                  positions (alat units)
         1           Re  tau(   1) = (   0.3333330   0.0000000   0.0000000  )
         2           Re  tau(   2) = (  -0.1666665   0.2886748   0.0000000  )
         3           Re  tau(   3) = (   0.3333335   0.5773506   0.0000000  )
         4           Re  tau(   4) = (   0.0000000   0.0000000   0.4661250  )
         5           Re  tau(   5) = (   0.5000005   0.2886748   0.4661250  )
         6           Re  tau(   6) = (  -0.0000005   0.5773506   0.4661250  )
         7           B   tau(   7) = (   0.3333330   0.0000000   0.9322500  )
         8           B   tau(   8) = (   0.6666670   0.0000000   0.9322500  )
         9           B   tau(   9) = (  -0.1666665   0.2886748   0.9322500  )
        10           B   tau(  10) = (   0.1666665   0.2886748   0.9322500  )
        11           B   tau(  11) = (   0.5000005   0.2886748   0.9322500  )
        12           B   tau(  12) = (  -0.3333335   0.5773506   0.9322500  )
        13           B   tau(  13) = (  -0.0000005   0.5773506   0.9322500  )
        14           B   tau(  14) = (   0.3333335   0.5773506   0.9322500  )

     number of k points=     3  Marzari-Vanderbilt smearing, width (Ry)=  0.0200
                       cart. coord. in units 2pi/alat
        k(    1) = (   0.0000000   0.0000000   0.0000000), wk =   0.2222222
        k(    2) = (   0.0000000   0.3849002   0.0000000), wk =   1.3333333
        k(    3) = (   0.3333333   0.5773503   0.0000000), wk =   0.4444444

     Check: negative core charge=   -0.000002

     Initial potential from superposition of free atoms

     starting charge     110.9975, renormalised to     114.0000

     negative rho (up, down):  8.045E-01 0.000E+00
     Starting wfcs are  110 randomized atomic wfcs

     Self-consistent Calculation

     iteration #  1     ecut=    50.00 Ry     beta= 0.70
     Davidson diagonalization with overlap
     ethr =  1.00E-02,  avg # of iterations =  2.0

     negative rho (up, down):  8.013E-01 0.000E+00

     total energy              =   -1161.71018892 Ry
     estimated scf accuracy    <      36.39192578 Ry

[...]

     total energy              =   -1191.71897421 Ry
     estimated scf accuracy    <       0.00000173 Ry

     iteration # 16     ecut=    50.00 Ry     beta= 0.70
     Davidson diagonalization with overlap
     ethr =  1.51E-09,  avg # of iterations =  5.7

     negative rho (up, down):  8.194E-01 0.000E+00

     End of self-consistent calculation

          k = 0.0000 0.0000 0.0000 ( 14217 PWs)   bands (ev):

   -74.9178 -74.8489 -74.7432 -74.7134 -74.6404 -74.6404 -37.1035 -36.9544
   -36.9543 -36.9206 -36.8873 -36.8873 -36.8022 -36.6044 -36.6044 -36.5294
   -36.4807 -36.4114 -36.4113 -36.3768 -36.2389 -36.2389 -36.0096 -36.0096
   -12.3738  -7.9360  -7.8710  -7.8710  -5.4188  -5.4187  -4.6712  -3.6395
    -2.3661  -1.2065   0.8967   0.8968   1.0489   1.4948   1.4949   1.7770
     1.8538   1.8539   2.0336   2.0337   2.7701   2.7701   3.0760   3.5571
     3.5977   3.6006   3.6006   3.6274   3.8211   3.8211   4.0512   4.0512
     4.6813   5.2717   5.2717   5.5834   5.5835   6.4117   6.7223   6.7224
     6.8046   6.8046   7.5443   7.5443

[...]

          k = 0.3333 0.5774 0.0000 ( 14214 PWs)   bands (ev):

   -74.8782 -74.8782 -74.7513 -74.6664 -74.6664 -74.6642 -37.0145 -37.0144
   -37.0080 -36.9413 -36.9413 -36.8348 -36.6177 -36.6177 -36.5783 -36.4462
   -36.4130 -36.4130 -36.3871 -36.3871 -36.3389 -36.1658 -36.1547 -36.1547
   -11.0270 -11.0269  -8.9377  -5.0874  -5.0873  -3.9532  -3.4472  -2.2686
    -2.2685  -0.8194  -0.5158  -0.5158  -0.3404   0.1600   0.1600   0.3662
     0.3662   0.4835   1.3636   1.3636   1.5635   2.9413   2.9413   3.2011
     3.7715   3.7716   4.0675   4.3948   4.3948   4.6403   4.7554   4.7554
     5.0684   6.4772   6.4772   6.5493   6.8620   6.9369   6.9370   7.7566
     7.7831   7.7831   8.0516   8.0964

     the Fermi energy is     5.2287 ev

!    total energy              =   -1191.71897385 Ry
     estimated scf accuracy    <       0.00000078 Ry
     smearing contrib. (-TS)   =       0.00421052 Ry
     internal energy E=F+TS    =   -1191.72318437 Ry

     The total energy is F=E-TS. E is the sum of the following terms:
     one-electron contribution =   -5831.92887823 Ry
     hartree contribution      =    2923.52897824 Ry
     xc contribution           =    -337.16952232 Ry
     ewald contribution        =    2053.84623793 Ry

     convergence has been achieved in  16 iterations

     Writing all to output data dir ../outdir/borophene.save/

     General routines

     Parallel routines

   This run was terminated on:  10:22:20  30Jul2025

   JOB DONE.