     Program PWSCF v.7.2 starts on 30Jul2025 at 10:33: 4

     Reading input from alpha_ML.relax.in

     Current dimensions of program PWSCF are:
     Max number of different atomic species (ntypx) = 10
     Max number of k-points (npk) =  40000
     Max angular momentum in pseudopotentials (lmaxx) =  4
     file B.pbesol-n-rrkjus_psl.1.0.0.UPF: wavefunction(s)  2S renormalized

     Subspace diagonalization in iterative solution of the eigenvalue problem:
     a serial algorithm will be used

     Using Slab Decomposition

     bravais-lattice index     =            4
     lattice parameter (alat)  =       9.0360  a.u.
     unit-cell volume          =    2382.6030 (a.u.)^3
     number of atoms/cell      =           14
     number of atomic types    =            2
     number of electrons       =       114.00
     number of Kohn-Sham states=           68
     kinetic-energy cutoff     =      50.0000  Ry
     charge density cutoff     =     200.0000  Ry
     scf convergence threshold =      1.0E-06
     mixing beta               =       0.7000
     number of iterations used =            8  plain     mixing
     energy convergence thresh.=      1.0E-03
     force convergence thresh. =      1.0E-03
     Exchange-correlation= SLA  PW   PSX  PSC
                           (   1   4  10   8   0   0   0)
     nstep                     =           50

     celldm(1)=   9.036000  celldm(2)=   0.000000  celldm(3)=   3.729000
     celldm(4)=   0.000000  celldm(5)=   0.000000  celldm(6)=   0.000000

     crystal axes: (cart. coord. in units of alat)
               a(1) = (   1.000000   0.000000   0.000000 )
               a(2) = (  -0.500000   0.866025   0.000000 )
               a(3) = (   0.000000   0.000000   3.729000 )

     reciprocal axes: (cart. coord. in units 2 pi/alat)
               b(1) = (  1.000000  0.577350 -0.000000 )
               b(2) = (  0.000000  1.154701  0.000000 )
               b(3) = (  0.000000 -0.000000  0.268168 )

     PseudoPot. # 1 for B  read from file:
     ../pseudo/B.pbesol-n-rrkjus_psl.1.0.0.UPF
     MD5 check sum: a3839a09b1a4e02f2a06a66adc9253fc
     Pseudo is Ultrasoft + core correction, Zval =  3.0
     Generated using &quot;atomic&quot; code by A. Dal Corso  v.6.3MaX
     Using radial grid of 1059 points,  4 beta functions with:
                l(1) =   0
                l(2) =   0
                l(3) =   1
                l(4) =   1
     Q(r) pseudized with 0 coefficients

     PseudoPot. # 2 for Re read from file:
     ../pseudo/re_pbesol_v1.2.uspp.F.UPF
     MD5 check sum: aaf9138663fa2d46e1797bae542d0e3d
     Pseudo is Ultrasoft + core correction, Zval = 15.0
     Generated by new atomic code, or converted to UPF format
     Using radial grid of  981 points,  8 beta functions with:
                l(1) =   0
                l(2) =   0
                l(3) =   1
                l(4) =   1
                l(5) =   2
                l(6) =   2
                l(7) =   3
                l(8) =   3
     Q(r) pseudized with  8 coefficients,  rinner =    1.150   1.150   1.150
                                                       1.150   1.150   1.150
                                                       1.150

     atomic species   valence    mass     pseudopotential
        B              3.00    10.81100     B ( 1.00)
        Re            15.00   186.20700     Re( 1.00)

      6 Sym. Ops. (no inversion) found

   Cartesian axes

     site n.     atom                  positions (alat units)
         1           Re  tau(   1) = (   0.3333330   0.0000000   0.0000000  )
         2           Re  tau(   2) = (  -0.1666665   0.2886748   0.0000000  )
         3           Re  tau(   3) = (   0.3333335   0.5773506   0.0000000  )
         4           Re  tau(   4) = (   0.0000000   0.0000000   0.4661250  )
         5           Re  tau(   5) = (   0.5000005   0.2886748   0.4661250  )
         6           Re  tau(   6) = (  -0.0000005   0.5773506   0.4661250  )
         7           B   tau(   7) = (   0.3333330   0.0000000   0.9322500  )
         8           B   tau(   8) = (   0.6666670   0.0000000   0.9322500  )
         9           B   tau(   9) = (  -0.1666665   0.2886748   0.9322500  )
        10           B   tau(  10) = (   0.1666665   0.2886748   0.9322500  )
        11           B   tau(  11) = (   0.5000005   0.2886748   0.9322500  )
        12           B   tau(  12) = (  -0.3333335   0.5773506   0.9322500  )
        13           B   tau(  13) = (  -0.0000005   0.5773506   0.9322500  )
        14           B   tau(  14) = (   0.3333335   0.5773506   0.9322500  )

     number of k points=     2  Marzari-Vanderbilt smearing, width (Ry)=  0.0200
                       cart. coord. in units 2pi/alat
        k(    1) = (   0.0000000   0.0000000   0.0000000), wk =   0.5000000
        k(    2) = (   0.0000000  -0.5773503   0.0000000), wk =   1.5000000

     Check: negative core charge=   -0.000002

     Initial potential from superposition of free atoms

     starting charge     110.9975, renormalised to     114.0000

     negative rho (up, down):  8.045E-01 0.000E+00
     Starting wfcs are  110 randomized atomic wfcs

     Self-consistent Calculation

     iteration #  1     ecut=    50.00 Ry     beta= 0.70
     Davidson diagonalization with overlap
     ethr =  1.00E-02,  avg # of iterations =  2.0

     negative rho (up, down):  7.999E-01 0.000E+00

     total energy              =   -1157.74818437 Ry
     estimated scf accuracy    <      40.70607619 Ry

[...]

     End of self-consistent calculation

          k = 0.0000 0.0000 0.0000 ( 14217 PWs)   bands (ev):

   -75.0977 -75.0236 -74.9825 -74.7244 -74.6444 -74.6444 -37.1740 -37.1591
   -37.1591 -37.1161 -37.1161 -36.9866 -36.9132 -36.6505 -36.6505 -36.5721
   -36.5411 -36.4742 -36.4742 -36.4398 -36.4289 -36.4288 -36.0421 -36.0421
   -11.9600  -7.4995  -7.4344  -7.4343  -5.0069  -5.0069  -4.5381  -3.2484
    -2.3966  -1.3220   0.7969   0.7970   1.0848   1.3995   1.3996   1.6868
     1.7788   1.7789   2.0134   2.0135   2.9578   2.9578   2.9739   3.4768
     3.4858   3.4912   3.4912   3.7498   3.8205   3.8205   4.0061   4.0061
     4.5162   5.4966   5.4966   5.5128   5.5128   6.4471   6.7506   6.7507
     6.8478   6.8478   7.5960   7.5961

[...]

     the Fermi energy is     5.5794 ev

!    total energy              =   -1191.77801004 Ry
     estimated scf accuracy    <       0.00000004 Ry
     smearing contrib. (-TS)   =      -0.01117636 Ry
     internal energy E=F+TS    =   -1191.76683368 Ry

     The total energy is F=E-TS. E is the sum of the following terms:
     one-electron contribution =   -5831.83232797 Ry
     hartree contribution      =    2923.46904018 Ry
     xc contribution           =    -337.24978383 Ry
     ewald contribution        =    2053.84623793 Ry

     convergence has been achieved in  18 iterations

[...]

     Forces acting on atoms (cartesian axes, Ry/au):

     atom    1 type  2   force =    -0.00201329    0.00000000    0.06771025
     atom    2 type  2   force =     0.00100665   -0.00174356    0.06771025
     atom    3 type  2   force =     0.00100665    0.00174356    0.06771025
     atom    4 type  2   force =     0.00000000    0.00000000   -0.01649859
     atom    5 type  2   force =     0.00000000    0.00000000   -0.07240407
     atom    6 type  2   force =     0.00000000    0.00000000   -0.07240407
     atom    7 type  1   force =    -0.08662375    0.00000000   -0.02408006
     atom    8 type  1   force =     0.08558551    0.00000000   -0.01805513
     atom    9 type  1   force =     0.04331187   -0.07501837   -0.02408006
     atom   10 type  1   force =    -0.04279275   -0.07411922   -0.01805513
     atom   11 type  1   force =     0.00000000    0.00000000    0.04229077
     atom   12 type  1   force =    -0.04279275    0.07411922   -0.01805513
     atom   13 type  1   force =     0.00000000    0.00000000    0.04229077
     atom   14 type  1   force =     0.04331187    0.07501837   -0.02408006
     The non-local contrib.  to forces
     atom    1 type  2   force =    -0.00673241    0.00000000   -0.24293334
     atom    2 type  2   force =     0.00336620   -0.00583044   -0.24293334
     atom    3 type  2   force =     0.00336620    0.00583044   -0.24293334
     atom    4 type  2   force =     0.00000000    0.00000000    0.32610015
     atom    5 type  2   force =     0.00000000    0.00000000    0.29921694
     atom    6 type  2   force =     0.00000000    0.00000000    0.29921694
     atom    7 type  1   force =     0.07941754    0.00000000   -0.14410994
     atom    8 type  1   force =    -0.07954200    0.00000000   -0.12615716
     atom    9 type  1   force =    -0.03970877    0.06877760   -0.14410994
     atom   10 type  1   force =     0.03977100    0.06888539   -0.12615716
     atom   11 type  1   force =     0.00000000    0.00000000    0.01894533
     atom   12 type  1   force =     0.03977100   -0.06888539   -0.12615716
     atom   13 type  1   force =     0.00000000    0.00000000    0.01894533
     atom   14 type  1   force =    -0.03970877   -0.06877760   -0.14410994
     The ionic contribution  to forces
     atom    1 type  2   force =    -0.02761996    0.00001353 -120.95442276
     atom    2 type  2   force =     0.01382170   -0.02391283 -120.95442276
     atom    3 type  2   force =     0.01379827    0.02389930 -120.95438124
     atom    4 type  2   force =    -0.00000000   -0.00000000   42.80368939
     atom    5 type  2   force =    -0.00010236    0.00005910   40.25483348
     atom    6 type  2   force =     0.00010236   -0.00005910   40.25483348
     atom    7 type  1   force =    -1.52822473    0.00001073   29.79007890
     atom    8 type  1   force =     1.52822472   -0.00001073   29.78831471
     atom    9 type  1   force =     0.76412165   -1.32347607   29.79007890
     atom   10 type  1   force =    -0.76410307   -1.32346534   29.78830646
     atom   11 type  1   force =    -0.00001932    0.00001115   30.40735303
     atom   12 type  1   force =    -0.76412165    1.32347607   29.78831471
     atom   13 type  1   force =     0.00001932   -0.00001115   30.40735303
     atom   14 type  1   force =     0.76410307    1.32346535   29.79007066
     The local contribution  to forces
     atom    1 type  2   force =     0.03363118    0.00000000  121.28815160
     atom    2 type  2   force =    -0.01681559    0.02912546  121.28815160
     atom    3 type  2   force =    -0.01681559   -0.02912546  121.28815160
     atom    4 type  2   force =     0.00000000   -0.00000000  -43.16818986
     atom    5 type  2   force =    -0.00025034    0.00014453  -40.64340107
     atom    6 type  2   force =     0.00025034   -0.00014453  -40.64340107
     atom    7 type  1   force =     1.35554798    0.00000000  -29.67387328
     atom    8 type  1   force =    -1.35641648   -0.00000000  -29.68338582
     atom    9 type  1   force =    -0.67777399    1.17393898  -29.67387328
     atom   10 type  1   force =     0.67820824    1.17469113  -29.68338582
     atom   11 type  1   force =    -0.00000211    0.00000122  -30.37908284
     atom   12 type  1   force =     0.67820824   -1.17469113  -29.68338582
     atom   13 type  1   force =     0.00000211   -0.00000122  -30.37908284
[...]
     atom    3 type  2   force =    -0.00000000   -0.00000000    0.00000000
     atom    4 type  2   force =    -0.00000000   -0.00000000    0.00010927
     atom    5 type  2   force =     0.00000001   -0.00000001   -0.00002944
     atom    6 type  2   force =    -0.00000001    0.00000001   -0.00002944
     atom    7 type  1   force =    -0.00001971   -0.00000000   -0.00014447
     atom    8 type  1   force =     0.00001972    0.00000000   -0.00014429
     atom    9 type  1   force =     0.00000985   -0.00001707   -0.00014447
     atom   10 type  1   force =    -0.00000986   -0.00001708   -0.00014429
     atom   11 type  1   force =     0.00000000   -0.00000000   -0.00013263
     atom   12 type  1   force =    -0.00000986    0.00001708   -0.00014429
     atom   13 type  1   force =    -0.00000000    0.00000000   -0.00013263
     atom   14 type  1   force =     0.00000985    0.00001707   -0.00014447

     Total force =     0.248067     Total SCF correction =     0.000420

     BFGS Geometry Optimization
     Energy error            =      0.0E+00 Ry
     Gradient error          =      8.7E-02 Ry/Bohr

     number of scf cycles    =   1
     number of bfgs steps    =   0

     energy             new  =   -1191.7780100395 Ry

     new trust radius        =       0.0899084151 bohr
     new conv_thr            =       0.0000010000 Ry

ATOMIC_POSITIONS (crystal)
Re            0.3333330000        0.0000000000        0.0000000000    0   0   0
Re            0.0000000000        0.3333330000        0.0000000000    0   0   0
Re            0.6666670000        0.6666670000        0.0000000000    0   0   0
Re            0.0000000000        0.0000000000        0.1245103586
Re            0.6666670000        0.3333330000        0.1228512080
Re            0.3333330000        0.6666670000        0.1228512080
B             0.3237464853        0.0000000000        0.2492853572
B             0.6761386142        0.0000000000        0.2494641639
B             0.0000000000        0.3237464853        0.2492853572
B             0.3238613858        0.3238613858        0.2494641639
B             0.6666670000        0.3333330000        0.2512550963
B            -0.0000000000        0.6761386142        0.2494641639
B             0.3333330000        0.6666670000        0.2512550963
B             0.6762535147        0.6762535147        0.2492853572

     Writing config-only to output data dir ../outdir/borophene.save/
     NEW-OLD atomic charge density approx. for the potential

[...]

     Total force =     0.120798     Total SCF correction =     0.001444
     Energy error            =      3.0E-02 Ry
     Gradient error          =      5.4E-02 Ry/Bohr

[...]

     energy             old  =   -1191.7780100395 Ry
     energy             new  =   -1191.8081190219 Ry

     CASE: energy            _new < energy            _old

[...]

     iteration #  5     ecut=    50.00 Ry     beta= 0.70
     Davidson diagonalization with overlap
     c_bands:  2 eigenvalues not converged
     ethr =  3.46E-06,  avg # of iterations = 13.0

[...]

     WARNING: bfgs curvature condition failed, Theta= 0.997
     new trust radius        =       0.0787518311 bohr
     new conv_thr            =       0.0000001326 Ry

[...]

     iteration #  2     ecut=    50.00 Ry     beta= 0.70
     Davidson diagonalization with overlap
     c_bands:  1 eigenvalues not converged
     ethr =  4.98E-05,  avg # of iterations = 16.5

[...]

     Threshold (ethr) on eigenvalues was too large:
     Diagonalizing with lowered threshold

     Davidson diagonalization with overlap
     ethr =  1.62E-08,  avg # of iterations =  5.0

[...]

     Total force =     0.004501     Total SCF correction =     0.000048
     Energy error            =      6.4E-05 Ry
     Gradient error          =      2.2E-03 Ry/Bohr

     number of scf cycles    =  16
     number of bfgs steps    =  15

     energy             old  =   -1191.9156512711 Ry
     energy             new  =   -1191.9157153234 Ry

     CASE: energy            _new < energy            _old

     new trust radius        =       0.0065315088 bohr
     new conv_thr            =       0.0000000100 Ry

ATOMIC_POSITIONS (crystal)
Re            0.3333330000        0.0000000000        0.0000000000    0   0   0
Re            0.0000000000        0.3333330000        0.0000000000    0   0   0
Re            0.6666670000        0.6666670000        0.0000000000    0   0   0
Re           -0.0000000000        0.0000000000        0.1233038414
Re            0.6666670000        0.3333330000        0.1158988185
Re            0.3333330000        0.6666670000        0.1158988185
B             0.3335584670        0.0000000000        0.2200687518
B             0.6788598797       -0.0000000000        0.2389424517
B             0.0000000000        0.3335584670        0.2200687518
B             0.3211401203        0.3211401203        0.2389424517
B             0.6666670000        0.3333330000        0.2549381213
B            -0.0000000000        0.6788598797        0.2389424517
B             0.3333330000        0.6666670000        0.2549381213
B             0.6664415330        0.6664415330        0.2200687518

     Writing config-only to output data dir ../outdir/borophene.save/
     NEW-OLD atomic charge density approx. for the potential

     Check: negative core charge=   -0.000002

[...]

     Self-consistent Calculation

[...]

     Threshold (ethr) on eigenvalues was too large:
     Diagonalizing with lowered threshold

     Davidson diagonalization with overlap
     ethr =  9.35E-08,  avg # of iterations =  3.5

[...]

     total energy              =   -1191.91573515 Ry
     estimated scf accuracy    <       0.00000004 Ry

     iteration #  9     ecut=    50.00 Ry     beta= 0.70
     Davidson diagonalization with overlap
     ethr =  3.56E-11,  avg # of iterations =  2.5

[...]

     End of self-consistent calculation

[...]

          k = 0.0000-0.5774 0.0000 ( 14236 PWs)   bands (ev):

   -75.3624 -75.3435 -75.2001 -74.8221 -74.8213 -74.7955 -37.7521 -37.4959
   -37.4852 -37.4130 -37.3192 -37.1928 -37.0350 -36.9992 -36.9519 -36.8922
   -36.7046 -36.6770 -36.5559 -36.5127 -36.5090 -36.4165 -36.3854 -36.3807
   -10.6819  -9.8886  -7.1694  -6.5467  -2.8424  -2.5777  -2.5689  -2.3794
    -1.8418  -1.5533  -0.9937  -0.9126  -0.5837  -0.5564  -0.2035   0.3882
     0.8001   0.8690   0.9312   1.0798   1.3133   2.0830   2.1567   2.5687
     2.6658   3.2125   3.2815   3.4725   4.0058   4.1178   4.1449   4.4069
     5.4838   5.5727   5.6241   6.0820   6.3940   7.2306   7.3229   7.3613
     7.5207   7.6270   7.7635   8.1975

     the Fermi energy is     5.3831 ev

!    total energy              =   -1191.91573515 Ry
     estimated scf accuracy    <          6.1E-09 Ry
     smearing contrib. (-TS)   =      -0.00573071 Ry
     internal energy E=F+TS    =   -1191.91000444 Ry

     The total energy is F=E-TS. E is the sum of the following terms:
     one-electron contribution =   -6106.90995281 Ry
     hartree contribution      =    3060.38241636 Ry
     xc contribution           =    -337.36755470 Ry
     ewald contribution        =    2191.98508671 Ry

     convergence has been achieved in   9 iterations

     negative rho (up, down):  8.190E-01 0.000E+00

     Forces acting on atoms (cartesian axes, Ry/au):

     atom    1 type  2   force =     0.00103311   -0.00000000    0.00004025
     atom    2 type  2   force =    -0.00051655    0.00089470    0.00004025
     atom    3 type  2   force =    -0.00051655   -0.00089470    0.00004025
     atom    4 type  2   force =     0.00000000   -0.00000000    0.00067817
     atom    5 type  2   force =     0.00000000    0.00000000    0.00018619
     atom    6 type  2   force =     0.00000000    0.00000000    0.00018619
     atom    7 type  1   force =    -0.00010186   -0.00000000    0.00003113
     atom    8 type  1   force =     0.00014928    0.00000000   -0.00029190
     atom    9 type  1   force =     0.00005093   -0.00008821    0.00003113
     atom   10 type  1   force =    -0.00007464   -0.00012928   -0.00029190
     atom   11 type  1   force =     0.00000000    0.00000000   -0.00019451
     atom   12 type  1   force =    -0.00007464    0.00012928   -0.00029190
     atom   13 type  1   force =     0.00000000    0.00000000   -0.00019451
     atom   14 type  1   force =     0.00005093    0.00008821    0.00003113
     The non-local contrib.  to forces
     atom    1 type  2   force =    -0.00424679   -0.00000000   -0.28477266
     atom    2 type  2   force =     0.00212339   -0.00367782   -0.28477266
     atom    3 type  2   force =     0.00212339    0.00367782   -0.28477266
     atom    4 type  2   force =     0.00000000    0.00000000    0.31110490
     atom    5 type  2   force =     0.00000000   -0.00000000    0.36537696
     atom    6 type  2   force =     0.00000000    0.00000000    0.36537696
     atom    7 type  1   force =     0.12169726    0.00000000   -0.04655456
     atom    8 type  1   force =    -0.10733857    0.00000000   -0.11263855
     atom    9 type  1   force =    -0.06084863    0.10539292   -0.04655456
     atom   10 type  1   force =     0.05366928    0.09295793   -0.11263855
     atom   11 type  1   force =     0.00000000    0.00000000   -0.21696350
     atom   12 type  1   force =     0.05366928   -0.09295793   -0.11263855
     atom   13 type  1   force =     0.00000000   -0.00000000   -0.21696350
     atom   14 type  1   force =    -0.06084863   -0.10539292   -0.04655456
     The ionic contribution  to forces
     atom    1 type  2   force =    -0.88766387    0.00001743 -123.98377045
     atom    2 type  2   force =     0.44384703   -0.76873075 -123.98377045
     atom    3 type  2   force =     0.44381684    0.76871332 -123.98371861
     atom    4 type  2   force =    -0.00000000    0.00000000   47.54628512
     atom    5 type  2   force =    -0.00010425    0.00006019   39.20508786
     atom    6 type  2   force =     0.00010425   -0.00006019   39.20508786
     atom    7 type  1   force =    -0.60414153    0.00001051   28.59378297
     atom    8 type  1   force =     1.01556631   -0.00001024   31.21792989
     atom    9 type  1   force =     0.30207987   -0.52319666   28.59378297
     atom   10 type  1   force =    -0.50777429   -0.87949087   31.21792543
     atom   11 type  1   force =    -0.00001525    0.00000880   33.27983573
     atom   12 type  1   force =    -0.50779203    0.87950111   31.21792989
     atom   13 type  1   force =     0.00001525   -0.00000880   33.27983573
     atom   14 type  1   force =     0.30206166    0.52318615   28.59377607
     The local contribution  to forces
     atom    1 type  2   force =     0.89400640   -0.00000000  124.29589097
     atom    2 type  2   force =    -0.44700320    0.77423226  124.29589097
     atom    3 type  2   force =    -0.44700320   -0.77423226  124.29589097
     atom    4 type  2   force =     0.00000000   -0.00000000  -47.88073152
     atom    5 type  2   force =    -0.00024736    0.00014281  -39.59417537
     atom    6 type  2   force =     0.00024736   -0.00014281  -39.59417537
     atom    7 type  1   force =     0.48432514   -0.00000000  -28.55519366
     atom    8 type  1   force =    -0.90483815    0.00000000  -31.10486744
     atom    9 type  1   force =    -0.24216257    0.41943787  -28.55519366
     atom   10 type  1   force =     0.45241908    0.78361283  -31.10486744
     atom   11 type  1   force =    -0.00000204    0.00000118  -33.05741648
     atom   12 type  1   force =     0.45241908   -0.78361283  -31.10486744
     atom   13 type  1   force =     0.00000204   -0.00000118  -33.05741648
     atom   14 type  1   force =    -0.24216257   -0.41943787  -28.55519366
     The core correction contribution to forces
     atom    1 type  2   force =    -0.00107161   -0.00000000   -0.02738106
     atom    2 type  2   force =     0.00053581   -0.00092804   -0.02738106
     atom    3 type  2   force =     0.00053581    0.00092804   -0.02738106
     atom    4 type  2   force =    -0.00000000   -0.00000000    0.02396925
     atom    5 type  2   force =     0.00001299   -0.00000750    0.02382944
     atom    6 type  2   force =    -0.00001299    0.00000750    0.02382944
     atom    7 type  1   force =    -0.00198723    0.00000000    0.00793107
     atom    8 type  1   force =    -0.00323137    0.00000000   -0.00077320
     atom    9 type  1   force =     0.00099361   -0.00172099    0.00793107
     atom   10 type  1   force =     0.00161568    0.00279845   -0.00077320
     atom   11 type  1   force =    -0.00000040    0.00000023   -0.00570717
     atom   12 type  1   force =     0.00161568   -0.00279845   -0.00077320
     atom   13 type  1   force =     0.00000040   -0.00000023   -0.00570717
     atom   14 type  1   force =     0.00099361    0.00172099    0.00793107
     The Hubbard contrib.    to forces
     atom    1 type  2   force =     0.00000000    0.00000000    0.00000000
     atom    2 type  2   force =     0.00000000    0.00000000    0.00000000
     atom    3 type  2   force =     0.00000000    0.00000000    0.00000000
     atom    4 type  2   force =     0.00000000    0.00000000    0.00000000
     atom    5 type  2   force =     0.00000000    0.00000000    0.00000000
     atom    6 type  2   force =     0.00000000    0.00000000    0.00000000
     atom    7 type  1   force =     0.00000000    0.00000000    0.00000000
     atom    8 type  1   force =     0.00000000    0.00000000    0.00000000
     atom    9 type  1   force =     0.00000000    0.00000000    0.00000000
     atom   10 type  1   force =     0.00000000    0.00000000    0.00000000
     atom   11 type  1   force =     0.00000000    0.00000000    0.00000000
     atom   12 type  1   force =     0.00000000    0.00000000    0.00000000
     atom   13 type  1   force =     0.00000000    0.00000000    0.00000000
     atom   14 type  1   force =     0.00000000    0.00000000    0.00000000
     The SCF correction term to forces
     atom    1 type  2   force =    -0.00000000   -0.00000000    0.00000000
     atom    2 type  2   force =     0.00000000   -0.00000000    0.00000000
     atom    3 type  2   force =     0.00000000    0.00000000    0.00000000
     atom    4 type  2   force =     0.00000000    0.00000000    0.00003614
     atom    5 type  2   force =     0.00000000   -0.00000000    0.00005302
     atom    6 type  2   force =    -0.00000000    0.00000000    0.00005302
     atom    7 type  1   force =    -0.00000156    0.00000000    0.00005335
     atom    8 type  1   force =    -0.00000303   -0.00000000    0.00004462
     atom    9 type  1   force =     0.00000078   -0.00000135    0.00005335
     atom   10 type  1   force =     0.00000152    0.00000263    0.00004462
     atom   11 type  1   force =    -0.00000000    0.00000000    0.00004263
     atom   12 type  1   force =     0.00000152   -0.00000263    0.00004462
     atom   13 type  1   force =     0.00000000   -0.00000000    0.00004263
     atom   14 type  1   force =     0.00000078    0.00000135    0.00005335

     Total force =     0.000981     Total SCF correction =     0.000158
     SCF correction compared to forces is large: reduce conv_thr to get better values
     Energy error            =      2.0E-05 Ry
     Gradient error          =      6.8E-04 Ry/Bohr

     bfgs converged in  17 scf cycles and  16 bfgs steps
     (criteria: energy <  1.0E-03 Ry, force <  1.0E-03 Ry/Bohr)

     End of BFGS Geometry Optimization

     Final energy             =   -1191.9157351495 Ry

     File ../outdir/borophene.bfgs deleted, as requested
Begin final coordinates

ATOMIC_POSITIONS (crystal)
Re            0.3333330000        0.0000000000        0.0000000000    0   0   0
Re            0.0000000000        0.3333330000        0.0000000000    0   0   0
Re            0.6666670000        0.6666670000        0.0000000000    0   0   0
Re           -0.0000000000        0.0000000000        0.1233038414
Re            0.6666670000        0.3333330000        0.1158988185
Re            0.3333330000        0.6666670000        0.1158988185
B             0.3335584670        0.0000000000        0.2200687518
B             0.6788598797       -0.0000000000        0.2389424517
B             0.0000000000        0.3335584670        0.2200687518
B             0.3211401203        0.3211401203        0.2389424517
B             0.6666670000        0.3333330000        0.2549381213
B            -0.0000000000        0.6788598797        0.2389424517
B             0.3333330000        0.6666670000        0.2549381213
B             0.6664415330        0.6664415330        0.2200687518
End final coordinates

     Writing all to output data dir ../outdir/borophene.save/

     General routines

     Parallel routines

   This run was terminated on:  11:19:43  30Jul2025

   JOB DONE.