     Program PWSCF v.7.2 starts on 30Jul2025 at 13:24:31

     Reading input from Re_substrate.scf.in

     Current dimensions of program PWSCF are:
     Max number of different atomic species (ntypx) = 10
     Max number of k-points (npk) =  40000
     Max angular momentum in pseudopotentials (lmaxx) =  4

     Subspace diagonalization in iterative solution of the eigenvalue problem:
     a serial algorithm will be used

     Using Slab Decomposition

     bravais-lattice index     =            4
     lattice parameter (alat)  =       5.2170  a.u.
     unit-cell volume          =     794.2522 (a.u.)^3
     number of atoms/cell      =            2
     number of atomic types    =            1
     number of electrons       =        30.00
     number of Kohn-Sham states=           19
     kinetic-energy cutoff     =      50.0000  Ry
     charge density cutoff     =     200.0000  Ry
     scf convergence threshold =      1.0E-06
     mixing beta               =       0.7000
     number of iterations used =            8  plain     mixing
     Exchange-correlation= SLA  PW   PSX  PSC
                           (   1   4  10   8   0   0   0)

     celldm(1)=   5.217000  celldm(2)=   0.000000  celldm(3)=   6.459000
     celldm(4)=   0.000000  celldm(5)=   0.000000  celldm(6)=   0.000000

     crystal axes: (cart. coord. in units of alat)
               a(1) = (   1.000000   0.000000   0.000000 )
               a(2) = (  -0.500000   0.866025   0.000000 )
               a(3) = (   0.000000   0.000000   6.459000 )

     reciprocal axes: (cart. coord. in units 2 pi/alat)
               b(1) = (  1.000000  0.577350 -0.000000 )
               b(2) = (  0.000000  1.154701  0.000000 )
               b(3) = (  0.000000 -0.000000  0.154823 )

     PseudoPot. # 1 for Re read from file:
     ../pseudo/re_pbesol_v1.2.uspp.F.UPF
     MD5 check sum: aaf9138663fa2d46e1797bae542d0e3d
     Pseudo is Ultrasoft + core correction, Zval = 15.0
     Generated by new atomic code, or converted to UPF format
     Using radial grid of  981 points,  8 beta functions with:
                l(1) =   0
                l(2) =   0
                l(3) =   1
                l(4) =   1
                l(5) =   2
                l(6) =   2
                l(7) =   3
                l(8) =   3
     Q(r) pseudized with  8 coefficients,  rinner =    1.150   1.150   1.150
                                                       1.150   1.150   1.150
                                                       1.150

     atomic species   valence    mass     pseudopotential
        Re            15.00   186.20700     Re( 1.00)

      6 Sym. Ops. (no inversion) found

   Cartesian axes

     site n.     atom                  positions (alat units)
         1           Re  tau(   1) = (   0.0000000   0.0000000   0.0000000  )
         2           Re  tau(   2) = (  -0.0000005   0.5773506   0.8073750  )

     number of k points=     7  Marzari-Vanderbilt smearing, width (Ry)=  0.0200
                       cart. coord. in units 2pi/alat
        k(    1) = (   0.0000000   0.0000000   0.0000000), wk =   0.0555556
        k(    2) = (   0.0000000   0.1924501   0.0000000), wk =   0.3333333
        k(    3) = (   0.0000000   0.3849002   0.0000000), wk =   0.3333333
        k(    4) = (   0.0000000  -0.5773503   0.0000000), wk =   0.1666667
        k(    5) = (   0.1666667   0.2886751   0.0000000), wk =   0.3333333
        k(    6) = (   0.1666667   0.4811252   0.0000000), wk =   0.6666667
        k(    7) = (   0.3333333   0.5773503   0.0000000), wk =   0.1111111

     Initial potential from superposition of free atoms

     starting charge      28.9999, renormalised to      30.0000

     negative rho (up, down):  2.748E-01 0.000E+00
     Starting wfcs are   26 randomized atomic wfcs

     Self-consistent Calculation

     iteration #  1     ecut=    50.00 Ry     beta= 0.70
     Davidson diagonalization with overlap
     ethr =  1.00E-02,  avg # of iterations =  2.0

     negative rho (up, down):  2.801E-01 0.000E+00

     total energy              =    -380.43881194 Ry
     estimated scf accuracy    <       0.42660380 Ry

[...]

     total energy              =    -380.55507293 Ry
     estimated scf accuracy    <       0.00004666 Ry

     iteration #  8     ecut=    50.00 Ry     beta= 0.70
     Davidson diagonalization with overlap
     ethr =  1.56E-07,  avg # of iterations =  2.0

     negative rho (up, down):  2.752E-01 0.000E+00

     End of self-consistent calculation

          k = 0.0000 0.0000 0.0000 (  4701 PWs)   bands (ev):

   -77.6495 -77.5888 -39.8681 -39.2483 -38.9316 -38.9316 -38.8444 -38.8444
    -5.9715  -4.0966   0.3087   1.0138   1.0361   1.0361   1.3201   1.3201
     2.8405   3.7864   3.7864

[...]

          k = 0.3333 0.5774 0.0000 (  4758 PWs)   bands (ev):

   -77.5386 -77.5366 -39.6492 -39.6484 -39.5995 -39.4099 -39.2771 -39.2770
    -1.7624  -1.1098  -1.1092   0.4940   0.7714   0.7717   1.0640   3.4159
     4.5021   4.5028   9.4603

     the Fermi energy is     2.0884 ev

!    total energy              =    -380.55507775 Ry
     estimated scf accuracy    <       0.00000077 Ry
     smearing contrib. (-TS)   =       0.00148267 Ry
     internal energy E=F+TS    =    -380.55656041 Ry

     The total energy is F=E-TS. E is the sum of the following terms:
     one-electron contribution =   -1628.02089386 Ry
     hartree contribution      =     810.36764542 Ry
     xc contribution           =    -103.99964527 Ry
     ewald contribution        =     541.09633329 Ry

     convergence has been achieved in   8 iterations

     Writing all to output data dir ../outdir/rhenium.save/

     General routines

     Parallel routines

   This run was terminated on:  13:25:58  30Jul2025

   JOB DONE.