     Program PWSCF v.7.2 starts on 27Jul2025 at 16:10:57

     Reading input from rhenium.scf.in

     Current dimensions of program PWSCF are:
     Max number of different atomic species (ntypx) = 10
     Max number of k-points (npk) =  40000
     Max angular momentum in pseudopotentials (lmaxx) =  4

     Subspace diagonalization in iterative solution of the eigenvalue problem:
     a serial algorithm will be used

     Using Slab Decomposition

     bravais-lattice index     =            4
     lattice parameter (alat)  =       5.2190  a.u.
     unit-cell volume          =     198.8223 (a.u.)^3
     number of atoms/cell      =            2
     number of atomic types    =            1
     number of electrons       =        30.00
     number of Kohn-Sham states=           19
     kinetic-energy cutoff     =      60.0000  Ry
     charge density cutoff     =     240.0000  Ry
     scf convergence threshold =      1.0E-06
     mixing beta               =       0.7000
     number of iterations used =            8  plain     mixing
     Exchange-correlation= SLA  PW   PSX  PSC
                           (   1   4  10   8   0   0   0)

     celldm(1)=   5.219000  celldm(2)=   0.000000  celldm(3)=   1.615000
     celldm(4)=   0.000000  celldm(5)=   0.000000  celldm(6)=   0.000000

     crystal axes: (cart. coord. in units of alat)
               a(1) = (   1.000000   0.000000   0.000000 )
               a(2) = (  -0.500000   0.866025   0.000000 )
               a(3) = (   0.000000   0.000000   1.615000 )

     reciprocal axes: (cart. coord. in units 2 pi/alat)
               b(1) = (  1.000000  0.577350 -0.000000 )
               b(2) = (  0.000000  1.154701  0.000000 )
               b(3) = (  0.000000 -0.000000  0.619195 )

     PseudoPot. # 1 for Re read from file:
     ../pseudo/re_pbesol_v1.2.uspp.F.UPF
     MD5 check sum: aaf9138663fa2d46e1797bae542d0e3d
     Pseudo is Ultrasoft + core correction, Zval = 15.0
     Generated by new atomic code, or converted to UPF format
     Using radial grid of  981 points,  8 beta functions with:
                l(1) =   0
                l(2) =   0
                l(3) =   1
                l(4) =   1
                l(5) =   2
                l(6) =   2
                l(7) =   3
                l(8) =   3
     Q(r) pseudized with  8 coefficients,  rinner =    1.150   1.150   1.150
                                                       1.150   1.150   1.150
                                                       1.150

     atomic species   valence    mass     pseudopotential
        Re            15.00   186.20700     Re( 1.00)

     24 Sym. Ops., with inversion, found (12 have fractional translation)

   Cartesian axes

     site n.     atom                  positions (alat units)
         1           Re  tau(   1) = (   0.0000000   0.0000000   0.0000000  )
         2           Re  tau(   2) = (  -0.0000005   0.5773506   0.8075000  )

     number of k points=    28  Marzari-Vanderbilt smearing, width (Ry)=  0.0300
                       cart. coord. in units 2pi/alat
        k(    1) = (   0.0000000   0.0000000   0.0000000), wk =   0.0092593
        k(    2) = (   0.0000000   0.0000000   0.1031992), wk =   0.0185185
        k(    3) = (   0.0000000   0.0000000   0.2063983), wk =   0.0185185
        k(    4) = (   0.0000000   0.0000000  -0.3095975), wk =   0.0092593
        k(    5) = (   0.0000000   0.1924501   0.0000000), wk =   0.0555556
        k(    6) = (   0.0000000   0.1924501   0.1031992), wk =   0.1111111
        k(    7) = (   0.0000000   0.1924501   0.2063983), wk =   0.1111111
        k(    8) = (   0.0000000   0.1924501  -0.3095975), wk =   0.0555556
        k(    9) = (   0.0000000   0.3849002   0.0000000), wk =   0.0555556
        k(   10) = (   0.0000000   0.3849002   0.1031992), wk =   0.1111111
        k(   11) = (   0.0000000   0.3849002   0.2063983), wk =   0.1111111
        k(   12) = (   0.0000000   0.3849002  -0.3095975), wk =   0.0555556
        k(   13) = (   0.0000000  -0.5773503   0.0000000), wk =   0.0277778
        k(   14) = (   0.0000000  -0.5773503   0.1031992), wk =   0.0555556
        k(   15) = (   0.0000000  -0.5773503   0.2063983), wk =   0.0555556
        k(   16) = (   0.0000000  -0.5773503  -0.3095975), wk =   0.0277778
        k(   17) = (   0.1666667   0.2886751   0.0000000), wk =   0.0555556
        k(   18) = (   0.1666667   0.2886751   0.1031992), wk =   0.1111111
        k(   19) = (   0.1666667   0.2886751   0.2063983), wk =   0.1111111
        k(   20) = (   0.1666667   0.2886751  -0.3095975), wk =   0.0555556
        k(   21) = (   0.1666667   0.4811252   0.0000000), wk =   0.1111111
        k(   22) = (   0.1666667   0.4811252   0.1031992), wk =   0.2222222
        k(   23) = (   0.1666667   0.4811252   0.2063983), wk =   0.2222222
        k(   24) = (   0.1666667   0.4811252  -0.3095975), wk =   0.1111111
        k(   25) = (   0.3333333   0.5773503   0.0000000), wk =   0.0185185
        k(   26) = (   0.3333333   0.5773503   0.1031992), wk =   0.0370370
        k(   27) = (   0.3333333   0.5773503   0.2063983), wk =   0.0370370
        k(   28) = (   0.3333333   0.5773503  -0.3095975), wk =   0.0185185

     Initial potential from superposition of free atoms

     starting charge      28.9999, renormalised to      30.0000

     negative rho (up, down):  2.728E-01 0.000E+00
     Starting wfcs are   26 randomized atomic wfcs

     Self-consistent Calculation

     iteration #  1     ecut=    60.00 Ry     beta= 0.70
     Davidson diagonalization with overlap
     ethr =  1.00E-02,  avg # of iterations =  2.0

     negative rho (up, down):  2.812E-01 0.000E+00

     total energy              =    -380.65639578 Ry
     estimated scf accuracy    <       0.36901832 Ry

[...]

     total energy              =    -380.75484274 Ry
     estimated scf accuracy    <       0.00005089 Ry

     iteration #  5     ecut=    60.00 Ry     beta= 0.70
     Davidson diagonalization with overlap
     ethr =  1.70E-07,  avg # of iterations =  2.0

     negative rho (up, down):  2.771E-01 0.000E+00

     End of self-consistent calculation

          k = 0.0000 0.0000 0.0000 (  1557 PWs)   bands (ev):

   -55.7182 -55.5962 -18.1609 -17.1092 -17.1092 -16.9343 -16.9343 -16.9141
    14.2743  17.5310  22.5815  22.5815  22.5838  23.4197  23.4197  24.3479
    24.3479  24.7559  27.5236

[...]

          k = 0.3333 0.5774-0.3096 (  1566 PWs)   bands (ev):

   -55.5743 -55.5743 -17.9080 -17.9080 -17.6495 -17.6495 -17.1404 -17.1403
    19.6064  19.6064  20.4275  20.4275  22.0149  22.0149  24.2187  24.2187
    27.5163  27.5163  33.6873

     the Fermi energy is    24.1031 ev

!    total energy              =    -380.75485415 Ry
     estimated scf accuracy    <       0.00000005 Ry
     smearing contrib. (-TS)   =       0.00358862 Ry
     internal energy E=F+TS    =    -380.75844277 Ry

     The total energy is F=E-TS. E is the sum of the following terms:
     one-electron contribution =     -32.58287854 Ry
     hartree contribution      =      36.77179133 Ry
     xc contribution           =    -104.39516690 Ry
     ewald contribution        =    -280.55218865 Ry

     convergence has been achieved in   5 iterations

     Writing all to output data dir ../outdir/rhenium.save/

     General routines

     Parallel routines

   This run was terminated on:  16:11:48  27Jul2025

   JOB DONE.