     Program PWSCF v.7.2 starts on 16Jul2025 at 17:22: 9

     Reading input from alpha.scf.in

     Current dimensions of program PWSCF are:
     Max number of different atomic species (ntypx) = 10
     Max number of k-points (npk) =  40000
     Max angular momentum in pseudopotentials (lmaxx) =  4
     file B.pbesol-n-rrkjus_psl.1.0.0.UPF: wavefunction(s)  2S renormalized

     IMPORTANT: XC functional enforced from input :
     Exchange-correlation= PBESOL
                           (   1   4  10   8   0   0   0)
     Any further DFT definition will be discarded
     Please, verify this is what you really want

     Subspace diagonalization in iterative solution of the eigenvalue problem:
     a serial algorithm will be used

     Using Slab Decomposition

     bravais-lattice index     =            4
     lattice parameter (alat)  =       9.5830  a.u.
     unit-cell volume          =    1524.2812 (a.u.)^3
     number of atoms/cell      =            8
     number of atomic types    =            1
     number of electrons       =        24.00
     number of Kohn-Sham states=           16
     kinetic-energy cutoff     =      70.0000  Ry
     charge density cutoff     =     280.0000  Ry
     scf convergence threshold =      1.0E-06
     mixing beta               =       0.7000
     number of iterations used =            8  plain     mixing
     Exchange-correlation= PBESOL
                           (   1   4  10   8   0   0   0)

     celldm(1)=   9.583000  celldm(2)=   0.000000  celldm(3)=   2.000000
     celldm(4)=   0.000000  celldm(5)=   0.000000  celldm(6)=   0.000000

     crystal axes: (cart. coord. in units of alat)
               a(1) = (   1.000000   0.000000   0.000000 )
               a(2) = (  -0.500000   0.866025   0.000000 )
               a(3) = (   0.000000   0.000000   2.000000 )

     reciprocal axes: (cart. coord. in units 2 pi/alat)
               b(1) = (  1.000000  0.577350 -0.000000 )
               b(2) = (  0.000000  1.154701  0.000000 )
               b(3) = (  0.000000 -0.000000  0.500000 )

     PseudoPot. # 1 for B  read from file:
     ../../pseudo/B.pbesol-n-rrkjus_psl.1.0.0.UPF
     MD5 check sum: a3839a09b1a4e02f2a06a66adc9253fc
     Pseudo is Ultrasoft + core correction, Zval =  3.0
     Generated using &quot;atomic&quot; code by A. Dal Corso  v.6.3MaX
     Using radial grid of 1059 points,  4 beta functions with:
                l(1) =   0
                l(2) =   0
                l(3) =   1
                l(4) =   1
     Q(r) pseudized with 0 coefficients

     atomic species   valence    mass     pseudopotential
        B              3.00    10.81100     B ( 1.00)

     Starting magnetic structure
     atomic species   magnetization
        B            1.000

     24 Sym. Ops., with inversion, found

   Cartesian axes

     site n.     atom                  positions (alat units)
         1           B   tau(   1) = (   0.3333330   0.0000000   0.0000000  )
         2           B   tau(   2) = (   0.6666670   0.0000000   0.0000000  )
         3           B   tau(   3) = (  -0.1666665   0.2886748   0.0000000  )
         4           B   tau(   4) = (   0.1666665   0.2886748   0.0000000  )
         5           B   tau(   5) = (   0.5000005   0.2886748   0.0000000  )
         6           B   tau(   6) = (  -0.3333335   0.5773506   0.0000000  )
         7           B   tau(   7) = (  -0.0000005   0.5773506   0.0000000  )
         8           B   tau(   8) = (   0.3333335   0.5773506   0.0000000  )

     number of k points=    12  Marzari-Vanderbilt smearing, width (Ry)=  0.0350
                       cart. coord. in units 2pi/alat
        k(    1) = (   0.0000000   0.0000000   0.0000000), wk =   0.0123457
        k(    2) = (   0.0000000   0.1283001   0.0000000), wk =   0.0740741
        k(    3) = (   0.0000000   0.2566001   0.0000000), wk =   0.0740741
        k(    4) = (   0.0000000   0.3849002   0.0000000), wk =   0.0740741
        k(    5) = (   0.0000000   0.5132002   0.0000000), wk =   0.0740741
        k(    6) = (   0.1111111   0.1924501   0.0000000), wk =   0.0740741
        k(    7) = (   0.1111111   0.3207501   0.0000000), wk =   0.1481481
        k(    8) = (   0.1111111   0.4490502   0.0000000), wk =   0.1481481
        k(    9) = (   0.1111111   0.5773503   0.0000000), wk =   0.0740741
        k(   10) = (   0.2222222   0.3849002   0.0000000), wk =   0.0740741
        k(   11) = (   0.2222222   0.5132002   0.0000000), wk =   0.1481481
        k(   12) = (   0.3333333   0.5773503   0.0000000), wk =   0.0246914

     Initial potential from superposition of free atoms

     starting charge      23.9977, renormalised to      24.0000

     negative rho (up, down):  4.520E-05 6.245E-17
     Starting wfcs are   32 randomized atomic wfcs

     Self-consistent Calculation

     iteration #  1     ecut=    70.00 Ry     beta= 0.70
     Davidson diagonalization with overlap
     ethr =  1.00E-02,  avg # of iterations =  2.3

     negative rho (up, down):  1.873E-04 5.023E-04

     total energy              =     -48.80931388 Ry
     estimated scf accuracy    <       1.37969524 Ry

     total magnetization       =     5.26 Bohr mag/cell
     absolute magnetization    =     5.26 Bohr mag/cell

[...]

     total energy              =     -49.98806931 Ry
     estimated scf accuracy    <       0.00000610 Ry

[...]

     iteration #  8     ecut=    70.00 Ry     beta= 0.70
     Davidson diagonalization with overlap
     ethr =  2.54E-08,  avg # of iterations =  2.6

     negative rho (up, down):  4.191E-04 4.189E-04

     Magnetic moment per site  (integrated on atomic sphere of radius R)
     atom   1 (R=0.137)  charge=  1.3051  magn=  0.0000
     atom   2 (R=0.137)  charge=  1.3051  magn=  0.0000
     atom   3 (R=0.137)  charge=  1.3051  magn=  0.0000
     atom   4 (R=0.137)  charge=  1.3051  magn=  0.0000
     atom   5 (R=0.137)  charge=  1.3040  magn= -0.0001
     atom   6 (R=0.137)  charge=  1.3051  magn=  0.0000
     atom   7 (R=0.137)  charge=  1.3040  magn= -0.0001
     atom   8 (R=0.137)  charge=  1.3051  magn=  0.0000

     End of self-consistent calculation

 ------ SPIN UP ------------

          k = 0.0000 0.0000 0.0000 ( 15117 PWs)   bands (ev):

   -16.1948 -12.0843 -12.0038 -12.0038  -9.7609  -9.7609  -7.6330  -7.0618
    -2.1462  -2.1462  -0.6696  -0.1593  -0.1593   0.1155   0.1155   0.4836

[...]

 ------ SPIN DOWN ----------

[...]

          k = 0.3333 0.5774 0.0000 ( 15075 PWs)   bands (ev):

   -14.9710 -14.9710 -12.9341  -9.4387  -9.4386  -8.0168  -7.8877  -5.1176
    -5.1176  -4.4567  -4.4567  -3.0974   2.4420   2.4420   2.8724   2.8724

     the Fermi energy is    -0.6142 ev

!    total energy              =     -49.98807193 Ry
     estimated scf accuracy    <       0.00000030 Ry
     smearing contrib. (-TS)   =       0.00021063 Ry
     internal energy E=F+TS    =     -49.98828255 Ry

     The total energy is F=E-TS. E is the sum of the following terms:
     one-electron contribution =    -179.30371813 Ry
     hartree contribution      =      94.21647431 Ry
     xc contribution           =     -23.20637465 Ry
     ewald contribution        =      58.30533592 Ry

     total magnetization       =     0.00 Bohr mag/cell
     absolute magnetization    =     0.00 Bohr mag/cell

     convergence has been achieved in   8 iterations

     Writing all to output data dir ../../outdir/borophene.save/

     General routines

     Parallel routines

   This run was terminated on:  17:28: 0  16Jul2025

   JOB DONE.