     Program PWSCF v.7.2 starts on  1Aug2025 at 11:24:13

     Reading input from just_alpha_relaxed.scf.in

     Current dimensions of program PWSCF are:
     Max number of different atomic species (ntypx) = 10
     Max number of k-points (npk) =  40000
     Max angular momentum in pseudopotentials (lmaxx) =  4
     file B.pbesol-n-rrkjus_psl.1.0.0.UPF: wavefunction(s)  2S renormalized

     Subspace diagonalization in iterative solution of the eigenvalue problem:
     a serial algorithm will be used

     Using Slab Decomposition

     bravais-lattice index     =            4
     lattice parameter (alat)  =       9.0360  a.u.
     unit-cell volume          =    2382.6030 (a.u.)^3
     number of atoms/cell      =            8
     number of atomic types    =            1
     number of electrons       =        24.00
     number of Kohn-Sham states=           16
     kinetic-energy cutoff     =      60.0000  Ry
     charge density cutoff     =     240.0000  Ry
     scf convergence threshold =      1.0E-06
     mixing beta               =       0.7000
     number of iterations used =            8  plain     mixing
     Exchange-correlation= PBESOL
                           (   1   4  10   8   0   0   0)

     celldm(1)=   9.036000  celldm(2)=   0.000000  celldm(3)=   3.729000
     celldm(4)=   0.000000  celldm(5)=   0.000000  celldm(6)=   0.000000

     crystal axes: (cart. coord. in units of alat)
               a(1) = (   1.000000   0.000000   0.000000 )
               a(2) = (  -0.500000   0.866025   0.000000 )
               a(3) = (   0.000000   0.000000   3.729000 )

     reciprocal axes: (cart. coord. in units 2 pi/alat)
               b(1) = (  1.000000  0.577350 -0.000000 )
               b(2) = (  0.000000  1.154701  0.000000 )
               b(3) = (  0.000000 -0.000000  0.268168 )

     PseudoPot. # 1 for B  read from file:
     ../../pseudo/B.pbesol-n-rrkjus_psl.1.0.0.UPF
     MD5 check sum: a3839a09b1a4e02f2a06a66adc9253fc
     Pseudo is Ultrasoft + core correction, Zval =  3.0
     Generated using &quot;atomic&quot; code by A. Dal Corso  v.6.3MaX
     Using radial grid of 1059 points,  4 beta functions with:
                l(1) =   0
                l(2) =   0
                l(3) =   1
                l(4) =   1
     Q(r) pseudized with 0 coefficients

     atomic species   valence    mass     pseudopotential
        B              3.00    10.81100     B ( 1.00)

      6 Sym. Ops. (no inversion) found

   Cartesian axes

     site n.     atom                  positions (alat units)
         1           B   tau(   1) = (   0.3335585   0.0000000   0.8206364  )
         2           B   tau(   2) = (   0.6788599   0.0000000   0.8910164  )
         3           B   tau(   3) = (  -0.1667792   0.2888701   0.8206364  )
         4           B   tau(   4) = (   0.1605701   0.2781155   0.8910164  )
         5           B   tau(   5) = (   0.5000005   0.2886748   0.9506643  )
         6           B   tau(   6) = (  -0.3394299   0.5879099   0.8910164  )
         7           B   tau(   7) = (  -0.0000005   0.5773506   0.9506643  )
         8           B   tau(   8) = (   0.3332208   0.5771553   0.8206364  )

     number of k points=     7  Marzari-Vanderbilt smearing, width (Ry)=  0.0200
                       cart. coord. in units 2pi/alat
        k(    1) = (   0.0000000   0.0000000   0.0000000), wk =   0.0555556
        k(    2) = (   0.0000000   0.1924501   0.0000000), wk =   0.3333333
        k(    3) = (   0.0000000   0.3849002   0.0000000), wk =   0.3333333
        k(    4) = (   0.0000000  -0.5773503   0.0000000), wk =   0.1666667
        k(    5) = (   0.1666667   0.2886751   0.0000000), wk =   0.3333333
        k(    6) = (   0.1666667   0.4811252   0.0000000), wk =   0.6666667
        k(    7) = (   0.3333333   0.5773503   0.0000000), wk =   0.1111111

     Check: negative core charge=   -0.000001

     Initial potential from superposition of free atoms

     starting charge      23.9977, renormalised to      24.0000

     negative rho (up, down):  5.167E-05 0.000E+00
     Starting wfcs are   32 randomized atomic wfcs

     Self-consistent Calculation

     iteration #  1     ecut=    60.00 Ry     beta= 0.70
     Davidson diagonalization with overlap
     ethr =  1.00E-02,  avg # of iterations =  2.1
     Minimization algorithm failed to find Fermi energy: reverting to bisection
     Possible cause: smearing is larger than the electronic band-gap.

     negative rho (up, down):  5.527E-04 0.000E+00

     total energy              =     -49.60416933 Ry
     estimated scf accuracy    <       1.06968170 Ry

     iteration #  2     ecut=    60.00 Ry     beta= 0.70
     Davidson diagonalization with overlap
     ethr =  4.46E-03,  avg # of iterations =  2.6

[...]

     total energy              =     -49.82382466 Ry
     estimated scf accuracy    <       0.00001663 Ry

     iteration #  7     ecut=    60.00 Ry     beta= 0.70
     Davidson diagonalization with overlap
     ethr =  6.93E-08,  avg # of iterations =  2.9

     negative rho (up, down):  1.037E-03 0.000E+00

     End of self-consistent calculation

          k = 0.0000 0.0000 0.0000 ( 18635 PWs)   bands (ev):

   -17.7196 -13.0009 -12.7635 -12.7635 -10.5745 -10.5744  -9.1844  -8.5589
    -2.1321  -2.1321  -1.7921  -1.6634  -1.6633  -1.1713  -1.1713  -0.5303

[...]

          k = 0.3333 0.5774 0.0000 ( 18777 PWs)   bands (ev):

   -16.2769 -16.2769 -14.1688 -10.0165 -10.0165  -9.0676  -8.0453  -6.5392
    -6.5392  -4.7537  -4.7126  -4.7126   0.2714   0.2714   2.0828   2.9057

     the Fermi energy is    -2.0286 ev

!    total energy              =     -49.82382874 Ry
     estimated scf accuracy    <       0.00000078 Ry
     smearing contrib. (-TS)   =      -0.00133095 Ry
     internal energy E=F+TS    =     -49.82249779 Ry

     The total energy is F=E-TS. E is the sum of the following terms:
     one-electron contribution =    -438.34473909 Ry
     hartree contribution      =     223.18346569 Ry
     xc contribution           =     -23.64676640 Ry
     ewald contribution        =     188.98554201 Ry

     convergence has been achieved in   7 iterations

     Writing all to output data dir ../../outdir/borophene.save/

     General routines

     Parallel routines

   This run was terminated on:  11:25:37   1Aug2025

   JOB DONE.